benchmark/results/graph__10-1000-0.10-03_19/graph__10-1000-0.10-03_19_QuintonOs_Benders_primal_sub.txt
solution for: Quinton Bounded Benders_primal_sub
objective: 0.000343761
status: OPTIMAL_SOLUTION(2)
u_a0=9.418
u_a1=10.157
u_a2=12.940
u_a3=12.680
u_a4=6.322
u_a5=0.781
u_a7=1.343
u_a8=0.821
u_a9=13.157
tau=0.000
y_a0_proc_2=0.000
y_a1_proc_2=0.000
y_a2_proc_2=0.000
y_a3_proc_1=0.000
y_a4_proc_1=0.000
y_a5_proc_2=0.000
y_a6_proc_1=0.000
y_a7_proc_0=0.000
y_a8_proc_0=0.000
y_a9_proc_0=0.000
